Route #1: 79
Route #2: 116 114 115 118
Route #3: 98 94 96 95
Route #4: 141 138 144 147
Route #5: 146 145 29 30 32 31 99 97 142
Route #6: 140 139 150
Route #7: 143 148 149
Route #8: 129 127 132 133 123 125 124 84 128 130 86 82 52
Route #9: 72 74 136 137 134 135 68 66 67 71 69 70
Route #10: 10 20 12 28 14 23 27 22 24
Route #11: 6 8 9 18 17 25 21 19 111 16 15 26 113 93 121 109 110 117 119 112 120 89 87 90 92 88 91 13
Route #12: 1 54 53 64 36 45 47 63 56 65 60
Route #13: 122 126 131 85 83 3 62 55 2
Route #14: 59 48 50 40 33 37 42 35 43 34 46 49 39 44 38 41 61 58
Route #15: 75 107 104 108 105 106 100 101 102 103 80 77 81 73 76 78
Route #16: 7 57 4 51 5 11
Cost 2793.651615725182